h 1 -2 0
h 3 0
h 4 3 0
5528375924759006849 -4 0
h 2 5 0
4512004307874201937 -5 0
h -3 6 1 0
4933483851701152494 -6 0
2601621081787841533 -7 0
503624294702495942 -8 0
h -1 9 0
h 10 -9 -1 0
367634612884852860 -10 0
